Solving original (integer) problem with strategy gdp.hull...
--- Job model.gms Start 02/14/26 22:41:52 52.2.0 d8e408be LEX-LEG x86 64bit/Linux
--- Applying:
    /package/gams/52.2/gmsprmun.txt
--- GAMS Parameters defined
    Input /local/scratch/a/sgusev/repos/k_means/data/gams_gurobi_gdp.hull/no_mode/2026-02-14_22-41-52/original/model.gms
    Output /local/scratch/a/sgusev/repos/k_means/data/gams_gurobi_gdp.hull/no_mode/2026-02-14_22-41-52/original/output.lst
    ScrDir /local/scratch/a/sgusev/repos/k_means/data/gams_gurobi_gdp.hull/no_mode/2026-02-14_22-41-52/original/225a/
    SysDir /package/gams/52.2/
    CurDir /local/scratch/a/sgusev/repos/k_means/data/gams_gurobi_gdp.hull/no_mode/2026-02-14_22-41-52/original/
    LogOption 3
    AppendLog 1
Licensee: David Bernal / SECQUOIA Research Group         G251008+0003Ac-GEN
          Purdue University, Davidson School of Chemical EngineeringDCE4838
          225a/gamslice.dat
          5a82958a-fbca-4a23
          node:66820903 mem:995 cores:48 ipport:51715 v:2                  
          Evaluation license: Not for commercial or production use
          The time-limited license stops working on : Jun 30, 2027
System information: 48 physical cores and 995 Gb physical memory detected
GAMS 52.2.0   Copyright (C) 1987-2025 GAMS Development. All rights reserved
--- Starting compilation
--- model.gms(3356) 2 Mb
--- $echo File /local/scratch/a/sgusev/repos/k_means/data/gams_gurobi_gdp.hull/no_mode/2026-02-14_22-41-52/original/gurobi.opt
--- model.gms(4923) 2 Mb
--- Starting execution: elapsed 0:00:00.018
--- model.gms(3365) 3 Mb
--- Generating MINLP model GAMS_MODEL
--- model.gms(3369) 6 Mb
---   1,023 rows  478 columns  2,465 non-zeroes
---   2,205 nl-code  270 nl-non-zeroes
---   45 discrete-columns
--- Range statistics (absolute non-zero finite values)
--- RHS       [min, max] : [ 4.810E-05, 1.000E+00] - Zero values observed as well
--- Bound     [min, max] : [ 1.000E+00, 1.200E+02] - Zero values observed as well
--- Matrix    [min, max] : [ 1.846E-02, 1.200E+02]
--- model.gms(3369) 4 Mb
--- Executing GUROBI (Solvelink=5): elapsed 0:00:00.024
Reading parameter(s) from "/local/scratch/a/sgusev/repos/k_means/data/gams_gurobi_gdp.hull/no_mode/2026-02-14_22-41-52/original/gurobi.opt"
>>  NonConvex 2
>>  Threads 1
>>  MIPGap 1e-06
>>  MIPGapAbs 1e-10
>>  FeasibilityTol 1e-06
>>  OptimalityTol 1e-06
>>  IntFeasTol 1e-05
Finished reading from "/local/scratch/a/sgusev/repos/k_means/data/gams_gurobi_gdp.hull/no_mode/2026-02-14_22-41-52/original/gurobi.opt"

... GRB_LICENSE_FILE = /local/scratch/a/sgusev/gurobi.lic

    Gurobi           52.2.0 d8e408be Dec 8, 2025           LEG x86 64bit/Linux    

... GAMS/Gurobi Link license.
... GMO Q Extraction (ThreePass): 0.00s

    Gurobi Optimizer version 13.0.0 build v13.0.0rc1 (linux64 - "Oracle Linux Server 9.7")
    
    CPU model: AMD EPYC 7643 48-Core Processor, instruction set [SSE2|AVX|AVX2]
    Thread count: 48 physical cores, 96 logical processors, using up to 1 threads
    
    Non-default parameters:
    TimeLimit  300
    MIPGap  1e-06
    LogToConsole  0
    NonConvex  2
    Threads  1
    
    Optimize a model with 1022 rows, 522 columns and 2224 nonzeros (Min)
    Model fingerprint: 0x60fe9cfe
    Model has 15 linear objective coefficients
    Model has 45 general nonlinear constraints (450 nonlinear terms)
    Variable types: 477 continuous, 45 integer (0 binary)
    Coefficient statistics:
      Matrix range     [1e+00, 1e+02]
      Objective range  [1e+00, 1e+00]
      Bounds range     [1e+00, 1e+02]
      RHS range        [1e+00, 1e+00]
      NLCon coe range  [5e-05, 1e+00]
    Presolve model has 45 nlconstr
    Added 945 variables to disaggregate expressions
    Presolve removed 225 rows and 195 columns
    Presolve time: 0.01s
    Presolved: 2957 rows, 1273 columns, 7519 nonzeros
    Presolved model has 450 bilinear constraint(s)
    
    Solving non-convex MIQCP to global optimality
    
    Variable types: 1228 continuous, 45 integer (45 binary)
    Found heuristic solution: objective 17.9736145
    
    Root relaxation: objective 0.000000e+00, 973 iterations, 0.00 seconds (0.00 work units)
    
        Nodes    |    Current Node    |     Objective Bounds      |     Work
     Expl Unexpl |  Obj  Depth IntInf | Incumbent    BestBd   Gap | It/Node Time
    
         0     0    0.00000    0  405   17.97361    0.00000   100%     -    0s
         0     0    0.00000    0  362   17.97361    0.00000   100%     -    0s
         0     0    0.00000    0  859   17.97361    0.00000   100%     -    0s
         0     0    0.00000    0  588   17.97361    0.00000   100%     -    0s
         0     0    0.00000    0  460   17.97361    0.00000   100%     -    0s
         0     0    0.00000    0  241   17.97361    0.00000   100%     -    0s
         0     0    0.00000    0  328   17.97361    0.00000   100%     -    0s
         0     0    0.00000    0  410   17.97361    0.00000   100%     -    0s
         0     0    0.00000    0  268   17.97361    0.00000   100%     -    0s
         0     0    0.00000    0  268   17.97361    0.00000   100%     -    0s
         0     0    0.00000    0  268   17.97361    0.00000   100%     -    0s
    H    0     0                      14.4760021    0.00000   100%     -    0s
    H    0     0                      12.5896280    0.00000   100%     -    0s
    H    0     0                      11.3254737    0.00000   100%     -    0s
         0     2    0.00000    0  268   11.32547    0.00000   100%     -    0s
    H    6     6                      10.5803594    0.00000   100%  24.0    0s
    H  657   452                      10.4159072    0.00000   100%  37.0    4s
    H  658   431                      10.4001436    0.00000   100%  37.1    4s
    H  658   410                      10.3985640    0.00000   100%  37.1    4s
    H  658   390                      10.3976802    0.00000   100%  37.1    4s
    H  658   371                      10.3973093    0.00000   100%  37.1    4s
    H  658   353                      10.3969906    0.00000   100%  37.1    4s
    H  664   340                      10.3740638    0.00000   100%  37.6    4s
    H  664   324                      10.3740120    0.00000   100%  37.6    4s
    H  676   316                      10.2633612    0.00000   100%  37.9    4s
    H  677   303                      10.2584561    0.00000   100%  37.8    4s
    H  677   289                      10.2583936    0.00000   100%  37.8    4s
    H  677   275                      10.2579247    0.00000   100%  37.8    4s
    H  678   263                      10.2434296    0.00000   100%  38.1    5s
    H  678   251                      10.2418808    0.00000   100%  38.1    5s
    H  678   239                      10.2417525    0.00000   100%  38.1    5s
    H  679   230                      10.1938928    0.00000   100%  38.0    5s
    H  679   219                      10.1781185    0.00000   100%  38.0    5s
    H  679   210                      10.1769946    0.00000   100%  38.0    5s
    H  679   200                      10.1680705    0.00000   100%  38.0    5s
    H  695   203                      10.1557441    0.00000   100%  38.9    5s
    H  695   194                      10.1527397    0.00000   100%  38.9    5s
    H  695   186                      10.1518587    0.00000   100%  38.9    5s
    H  701   183                      10.1518521    0.00000   100%  39.1    5s
    H  742   203                      10.0196079    0.00000   100%  41.7    5s
    H  742   196                      10.0101223    0.00000   100%  41.7    5s
    H  742   189                      10.0072360    0.00000   100%  41.7    5s
    H  742   183                      10.0064192    0.00000   100%  41.7    5s
    H  743   178                       9.8407085    0.00000   100%  41.7    5s
    H  743   173                       9.8399675    0.00000   100%  41.7    5s
    H  761   180                       9.8399227    0.00000   100%  41.3    5s
    H  824   217                       9.7459924    0.00000   100%  40.0    6s
    H  824   212                       9.7455531    0.00000   100%  40.0    6s
    H  824   207                       9.7450927    0.00000   100%  40.0    6s
    H  824   203                       9.7442969    0.00000   100%  40.0    6s
    H  862   215                       9.7439361    0.00000   100%  38.9    6s
    H  862   215                       9.7429657    0.00000   100%  38.9    6s
    H  862   215                       9.7421123    0.00000   100%  38.9    6s
    H  862   215                       9.7417362    0.00000   100%  38.9    6s
    H  862   215                       9.7413565    0.00000   100%  38.9    6s
    H  866   219                       9.7411200    0.00000   100%  39.5    6s
    H  875   228                       9.7409139    0.00000   100%  40.0    6s
    H  885   238                       9.7408540    0.00000   100%  40.9    6s
    H 1273   609                       9.4389118    0.00000   100%  48.3    8s
    H 1273   609                       9.4144912    0.00000   100%  48.3    8s
    H 1273   609                       9.4126278    0.00000   100%  48.3    8s
    H 1273   609                       9.4123173    0.00000   100%  48.3    8s
    H 1273   609                       9.4051414    0.00000   100%  48.3    8s
    H 1273   609                       9.4051390    0.00000   100%  48.3    8s
    H 1307   643                       9.4017728    0.00000   100%  47.1    8s
    H 1307   643                       9.3971183    0.00000   100%  47.1    8s
    H 1330   660                       9.3744922    0.00000   100%  46.4    8s
    H 1330   660                       9.3627840    0.00000   100%  46.4    8s
    H 1330   660                       9.3605198    0.00000   100%  46.4    8s
    H 1330   660                       9.3594926    0.00000   100%  46.4    8s
    H 1330   660                       9.3590207    0.00000   100%  46.4    8s
    H 1346   672                       9.3441396    0.00000   100%  45.9    8s
    H 1346   672                       9.3426358    0.00000   100%  45.9    8s
    H 1346   672                       9.3425150    0.00000   100%  45.9    8s
    H 1346   672                       9.3425041    0.00000   100%  45.9    8s
    H 1346   672                       9.3425016    0.00000   100%  45.9    8s
    H 1545   723                       8.9617261    0.00000   100%  44.7    9s
    H 1545   723                       8.9616014    0.00000   100%  44.7    9s
    H 1545   723                       8.9613887    0.00000   100%  44.7    9s
    H 1624   767                       8.9612775    0.00000   100%  43.6    9s
      1825   932    2.94244   51  118    8.96128    0.00000   100%  44.8   10s
    H 2333  1321                       8.9612768    0.08846  99.0%  43.6   11s
      4034  2216    2.74754   68  130    8.96128    0.67365  92.5%  41.2   15s
      5866  3083    8.40673   58   72    8.96128    0.94139  89.5%  39.7   20s
    H 5981  2955                       8.7516568    0.94139  89.2%  39.3   20s
    H 5981  2824                       8.7472688    0.94139  89.2%  39.3   20s
    H 5981  2700                       8.7472562    0.94139  89.2%  39.3   20s
    H 6035  2610                       8.7372326    0.94139  89.2%  38.9   20s
    H 6035  2498                       8.7371832    0.94139  89.2%  38.9   20s
    H 6035  2392                       8.7369916    0.94139  89.2%  38.9   20s
    H 6089  2325                       8.7298822    0.94139  89.2%  38.6   20s
    H 6089  2229                       8.7259164    0.94139  89.2%  38.6   20s
    H 6089  2137                       8.7254505    0.94139  89.2%  38.6   20s
    H 6197  2107                       8.6604363    0.94139  89.1%  38.0   20s
    H 6197  2024                       8.6500125    0.94139  89.1%  38.0   20s
    H 6197  1946                       8.6497124    0.94139  89.1%  38.0   20s
    H 6197  1872                       8.6467981    0.94139  89.1%  38.0   20s
    H 6251  1815                       8.6448764    0.94139  89.1%  37.7   20s
    H 6251  1748                       8.6448377    0.94139  89.1%  37.7   20s
    H 6251  1684                       8.6440903    0.94139  89.1%  37.7   20s
      8638  1924     cutoff   41         8.64409    2.65799  69.3%  37.1   25s
    H10996  2804                       8.6440484    3.45037  60.1%  35.6   29s
     11433  2948    7.50515   47   98    8.64405    3.57630  58.6%  35.4   30s
    H11996  3081                       8.6440480    3.73274  56.8%  35.4   31s
     14206  3666    7.92544   50  104    8.64405    4.13649  52.1%  34.8   35s
     17000  4237    7.76028   44   95    8.64405    4.47368  48.2%  34.6   40s
     19605  4712    8.16888   52  101    8.64405    4.72853  45.3%  34.4   45s
     22541  5112     cutoff   40         8.64405    4.99786  42.2%  34.1   50s
    H25018  5422                       8.6440480    5.20012  39.8%  33.8   54s
     25315  5451    8.22020   49   96    8.64405    5.23918  39.4%  33.8   55s
     28141  5733    7.71637   45  108    8.64405    5.43901  37.1%  33.7   60s
    H28346  5757                       8.6440473    5.44851  37.0%  33.6   60s
     30986  5971    8.07613   44   81    8.64405    5.61955  35.0%  33.5   65s
     33923  6136    7.54323   43  112    8.64405    5.80516  32.8%  33.3   70s
     36863  6210    7.26530   36  123    8.64405    5.96061  31.0%  33.2   75s
     39674  6340    8.60879   44   80    8.64405    6.09318  29.5%  33.0   80s
     42295  6339    7.52888   39  119    8.64405    6.23303  27.9%  33.0   85s
     45286  6300    8.23115   49   66    8.64405    6.37731  26.2%  32.9   90s
     48235  6379    8.04179   57   85    8.64405    6.49461  24.9%  32.7   95s
     51190  6145    7.80974   48   66    8.64405    6.63978  23.2%  32.7  100s
     54104  5894     cutoff   48         8.64405    6.77700  21.6%  32.7  105s
     57059  5530    7.21291   43   83    8.64405    6.93959  19.7%  32.7  110s
     59956  4873    8.06548   39  104    8.64405    7.13908  17.4%  32.8  115s
     62872  3969     cutoff   48         8.64405    7.39122  14.5%  32.9  120s
     65618  2867    8.11301   69   40    8.64405    7.69697  11.0%  32.9  125s
     68927  3439    8.29887   63   37    8.64405    7.93960  8.15%  32.1  130s
     72294  4552    8.42842   80   43    8.64405    8.01379  7.29%  30.9  135s
     75633  5513    8.60198   86   29    8.64405    8.06624  6.68%  29.9  140s
     78963  6916    8.14289   54   51    8.64405    8.08778  6.44%  28.9  145s
     82356  8058     cutoff   57         8.64405    8.11873  6.08%  27.9  150s
     85715  9036     cutoff   59         8.64405    8.15555  5.65%  27.1  155s
     89099 10011     cutoff   81         8.64405    8.17642  5.41%  26.3  160s
     92395 10769     cutoff   67         8.64405    8.19848  5.15%  25.6  165s
    H94618 11343                       8.6440472    8.21452  4.97%  25.1  168s
    H94618 11341                       8.6440401    8.21452  4.97%  25.1  168s
    H94618 11341                       8.6440401    8.21452  4.97%  25.1  168s
     95663 11821    8.64399  153   33    8.64404    8.21892  4.92%  24.9  170s
    H95712 11868                       8.6440394    8.21892  4.92%  24.9  170s
     98985 12631    8.39769   93   40    8.64404    8.23684  4.71%  24.2  175s
     102352 13613    8.63959   80   25    8.64404    8.24137  4.66%  23.6  180s
     105766 14397    8.50455   67   35    8.64404    8.25402  4.51%  23.0  185s
     109164 15206    8.50618   62   43    8.64404    8.26872  4.34%  22.5  190s
     113012 16162    8.39953   68   45    8.64404    8.28214  4.19%  21.9  195s
     116919 17399    8.63214   74   41    8.64404    8.29043  4.09%  21.3  200s
    H118952 18004                       8.6440392    8.29694  4.02%  21.0  202s
     120811 18662    8.60793   73   28    8.64404    8.30281  3.95%  20.8  205s
     124721 19936    8.63200   93   24    8.64404    8.31296  3.83%  20.3  210s
    H126843 20622                       8.6440392    8.31842  3.77%  20.0  212s
     128440 21303     cutoff   80         8.64404    8.32160  3.73%  19.8  215s
     132401 22504    8.59811   87   26    8.64404    8.32847  3.65%  19.4  220s
     136230 23621    8.42072   60   37    8.64404    8.33699  3.55%  19.0  225s
     140037 24498    8.61232   88   36    8.64404    8.34269  3.49%  18.6  230s
     144095 25634    8.44044   76   43    8.64404    8.34787  3.43%  18.2  235s
     147950 26545    8.49617   92   33    8.64404    8.35400  3.36%  17.8  240s
     151854 27577    8.53733  100   37    8.64404    8.35820  3.31%  17.5  245s
     155630 28627     cutoff   75         8.64404    8.36321  3.25%  17.2  250s
     159519 29886    8.56504   74   52    8.64404    8.36702  3.20%  16.9  255s
     163297 30744     cutoff   60         8.64404    8.37123  3.16%  16.6  260s
     166908 31471    8.56311   82   38    8.64404    8.37532  3.11%  16.4  265s
     170742 32370    8.52134   97   26    8.64404    8.37952  3.06%  16.1  270s
     174404 33074    8.58659   81   18    8.64404    8.38355  3.01%  15.9  275s
     178035 33613    8.62175   74   36    8.64404    8.38733  2.97%  15.7  280s
     181788 34262    8.63147   87   38    8.64404    8.39051  2.93%  15.4  285s
     185471 35001     cutoff   94         8.64404    8.39309  2.90%  15.2  290s
     189166 35628     cutoff   87         8.64404    8.39602  2.87%  15.0  295s
    
    Cutting planes:
      Learned: 71
      Gomory: 1
      Implied bound: 43
      Projected implied bound: 4
      MIR: 5
      Flow cover: 33
      Inf proof: 4
      RLT: 18
      Relax-and-lift: 23
      PSD: 3
    
    Explored 192913 nodes (2863982 simplex iterations) in 300.00 seconds (228.96 work units)
    Thread count was 1 (of 96 available processors)
    
    Solution count 10: 8.64404 8.64404 8.64404 ... 8.64488
    
    Time limit reached
    Best objective 8.644039215143e+00, best bound 8.398656507408e+00, gap 2.8388%
    
    User-callback calls 193010, time in user-callback 0.01 sec

--- Reading solution for model GAMS_MODEL
***
*** Solver did not provide marginals for model GAMS_MODEL
***
--- Executing after solve: elapsed 0:05:00.075
--- model.gms(3372) 4 Mb
--- model.gms(4923) 6 Mb
--- Putfile results /local/scratch/a/sgusev/repos/k_means/data/gams_gurobi_gdp.hull/no_mode/2026-02-14_22-41-52/original/results.dat
--- Putfile statresults /local/scratch/a/sgusev/repos/k_means/data/gams_gurobi_gdp.hull/no_mode/2026-02-14_22-41-52/original/resultsstat.dat
*** Status: Normal completion
--- Job model.gms Stop 02/14/26 22:46:52 elapsed 0:05:00.078
Original problem solved. Time taken: 300.677720785141 seconds
Original objective value: 8.644039215143286
